246 5
10 10 10 10 10 

0 0 0 0 0 0 3 2 14 26 
0 0 0 0 0 0 2 3 4 
6 3 0 0 0 0 2 10 5 
9 7 0 0 0 0 2 10 6 
10 6 0 0 0 0 1 6 
6 5 0 0 0 0 1 7 
9 7 0 0 0 0 1 8 
1 10 0 0 0 0 2 12 9 
9 10 0 0 0 0 1 11 
6 8 0 0 0 0 1 11 
9 10 0 0 0 0 2 13 31 
3 9 0 0 0 0 1 13 
0 0 0 0 0 0 1 38 
0 0 0 0 0 0 3 15 21 24 
10 5 0 0 0 0 1 16 
9 7 0 0 0 0 3 23 17 129 
3 6 0 0 0 0 1 18 
1 10 0 0 0 0 1 19 
1 2 0 0 0 0 1 20 
3 7 0 0 0 0 1 22 
10 10 0 0 0 0 1 23 
4 10 0 0 0 0 1 25 
10 8 0 0 0 0 1 25 
8 10 0 0 0 0 1 25 
0 0 0 0 0 0 1 38 
0 0 0 0 0 0 3 27 29 33 
4 0 2 0 0 0 1 28 
8 0 9 0 0 0 2 36 30 
10 0 10 0 0 0 3 36 30 157 
8 0 8 0 0 0 1 31 
9 0 7 0 0 0 1 32 
5 0 7 0 0 0 1 34 
4 0 8 0 0 0 1 34 
3 0 7 0 0 0 1 35 
5 0 9 0 0 0 1 37 
4 0 8 0 0 0 1 37 
0 0 0 0 0 0 1 38 
0 0 0 0 0 0 5 39 51 63 75 87 
0 0 0 0 0 0 2 40 41 
5 0 0 0 4 0 2 43 42 
9 0 0 0 7 0 2 43 42 
2 0 0 0 7 0 3 48 44 177 
10 0 0 0 7 0 1 44 
6 0 0 0 8 0 1 45 
7 0 0 0 10 0 1 46 
10 0 0 0 9 0 1 47 
6 0 0 0 6 0 1 49 
7 0 0 0 7 0 1 49 
6 0 0 0 10 0 1 50 
0 0 0 0 0 0 1 99 
0 0 0 0 0 0 2 52 53 
2 0 0 0 0 4 1 54 
2 0 0 0 0 9 1 54 
1 0 0 0 0 6 2 55 228 
2 0 0 0 0 8 2 57 56 
1 0 0 0 0 6 1 58 
5 0 0 0 0 10 1 58 
5 0 0 0 0 10 1 59 
8 0 0 0 0 8 2 61 60 
2 0 0 0 0 5 1 62 
2 0 0 0 0 9 1 62 
0 0 0 0 0 0 1 99 
0 0 0 0 0 0 1 64 
2 0 0 0 0 3 1 65 
7 0 0 0 0 6 1 66 
9 0 0 0 0 7 2 69 67 
2 0 0 0 0 9 3 71 68 127 
4 0 0 0 0 9 1 70 
6 0 0 0 0 8 1 70 
2 0 0 0 0 7 2 73 72 
1 0 0 0 0 9 1 72 
5 0 0 0 0 7 1 74 
2 0 0 0 0 10 1 74 
0 0 0 0 0 0 1 99 
0 0 0 0 0 0 1 76 
8 0 0 0 0 1 2 77 140 
7 0 0 0 0 6 1 78 
9 0 0 0 0 10 1 79 
9 0 0 0 0 10 2 81 80 
8 0 0 0 0 9 2 83 82 
1 0 0 0 0 7 1 82 
9 0 0 0 0 5 2 85 84 
8 0 0 0 0 8 2 85 84 
9 0 0 0 0 10 1 86 
10 0 0 0 0 9 1 86 
0 0 0 0 0 0 1 99 
0 0 0 0 0 0 2 88 91 
9 0 0 5 0 0 1 89 
10 0 0 4 0 0 2 95 90 
6 0 0 5 0 0 1 92 
6 0 0 8 0 0 1 92 
10 0 0 10 0 0 1 93 
5 0 0 6 0 0 2 97 94 
9 0 0 10 0 0 2 96 127 
6 0 0 9 0 0 1 96 
5 0 0 10 0 0 1 98 
9 0 0 8 0 0 1 98 
0 0 0 0 0 0 1 99 
0 0 0 0 0 0 5 100 112 124 136 148 
0 0 0 0 0 0 2 101 103 
10 3 0 0 0 0 1 102 
2 5 0 0 0 0 2 107 104 
7 10 0 0 0 0 2 107 104 
7 5 0 0 0 0 1 105 
10 10 0 0 0 0 3 110 106 217 
10 9 0 0 0 0 1 108 
3 10 0 0 0 0 1 108 
5 9 0 0 0 0 1 109 
3 5 0 0 0 0 1 111 
7 9 0 0 0 0 1 111 
0 0 0 0 0 0 1 160 
0 0 0 0 0 0 2 113 117 
3 0 5 0 0 0 2 116 114 
10 0 5 0 0 0 2 115 239 
8 0 8 0 0 0 2 122 118 
9 0 6 0 0 0 2 122 118 
9 0 10 0 0 0 2 122 118 
3 0 8 0 0 0 1 119 
1 0 8 0 0 0 1 120 
8 0 10 0 0 0 1 121 
10 0 10 0 0 0 1 123 
6 0 5 0 0 0 1 123 
0 0 0 0 0 0 1 160 
0 0 0 0 0 0 2 125 127 
10 0 0 2 0 0 1 126 
6 0 0 9 0 0 2 131 128 
3 0 0 9 0 0 2 131 128 
4 0 0 6 0 0 1 129 
9 0 0 9 0 0 1 130 
3 0 0 7 0 0 1 132 
9 0 0 6 0 0 2 132 182 
6 0 0 10 0 0 2 134 133 
10 0 0 7 0 0 1 135 
10 0 0 10 0 0 1 135 
0 0 0 0 0 0 1 160 
0 0 0 0 0 0 2 137 139 
7 0 4 0 0 0 1 138 
2 0 6 0 0 0 2 146 141 
3 0 8 0 0 0 2 140 215 
2 0 8 0 0 0 2 146 143 
2 0 10 0 0 0 1 142 
4 0 9 0 0 0 1 143 
6 0 7 0 0 0 1 144 
2 0 6 0 0 0 1 145 
7 0 9 0 0 0 1 147 
6 0 8 0 0 0 1 147 
0 0 0 0 0 0 1 160 
0 0 0 0 0 0 5 149 151 155 156 162 
7 0 0 0 0 3 1 150 
9 0 0 0 0 10 1 152 
1 0 0 0 0 6 1 152 
8 0 0 0 0 8 1 153 
3 0 0 0 0 10 1 154 
9 0 0 0 0 5 1 157 
2 0 0 0 0 10 1 157 
9 0 0 0 0 7 1 157 
7 0 0 0 0 6 1 158 
6 0 0 0 0 10 1 159 
0 0 0 0 0 0 1 160 
0 0 0 0 0 0 5 161 173 185 197 209 
0 0 0 0 0 0 2 162 165 
10 0 0 2 0 0 1 163 
1 0 0 6 0 0 1 164 
1 0 0 10 0 0 2 167 166 
1 0 0 4 0 0 2 167 166 
10 0 0 10 0 0 2 171 168 
9 0 0 9 0 0 3 171 170 218 
9 0 0 6 0 0 1 169 
7 0 0 10 0 0 1 170 
5 0 0 8 0 0 1 172 
2 0 0 10 0 0 1 172 
0 0 0 0 0 0 1 221 
0 0 0 0 0 0 2 174 175 
9 9 0 0 0 0 3 183 182 176 
4 5 0 0 0 0 3 183 182 178 
10 5 0 0 0 0 1 177 
5 7 0 0 0 0 2 178 226 
8 9 0 0 0 0 1 179 
8 6 0 0 0 0 1 180 
5 10 0 0 0 0 1 181 
8 7 0 0 0 0 1 184 
7 7 0 0 0 0 1 184 
5 10 0 0 0 0 1 184 
0 0 0 0 0 0 1 221 
0 0 0 0 0 0 2 186 187 
4 0 2 0 0 0 2 190 188 
3 0 3 0 0 0 2 190 189 
10 0 10 0 0 0 1 189 
6 0 6 0 0 0 2 192 191 
10 0 7 0 0 0 1 191 
6 0 10 0 0 0 2 193 231 
5 0 9 0 0 0 1 193 
6 0 8 0 0 0 1 194 
2 0 10 0 0 0 1 195 
7 0 10 0 0 0 1 196 
0 0 0 0 0 0 1 221 
0 0 0 0 0 0 1 198 
5 0 3 0 0 0 2 205 199 
2 0 10 0 0 0 2 201 200 
1 0 9 0 0 0 2 204 202 
1 0 10 0 0 0 2 204 203 
3 0 8 0 0 0 1 203 
7 0 5 0 0 0 1 206 
6 0 10 0 0 0 2 206 240 
7 0 7 0 0 0 1 206 
5 0 3 0 0 0 1 207 
10 0 10 0 0 0 1 208 
0 0 0 0 0 0 1 221 
0 0 0 0 0 0 4 210 213 216 224 
9 0 2 0 0 0 1 211 
3 0 5 0 0 0 1 212 
6 0 7 0 0 0 2 219 214 
10 0 10 0 0 0 2 219 217 
6 0 9 0 0 0 1 215 
7 0 8 0 0 0 1 217 
10 0 7 0 0 0 1 217 
7 0 9 0 0 0 1 218 
8 0 10 0 0 0 1 220 
1 0 8 0 0 0 1 220 
0 0 0 0 0 0 1 221 
0 0 0 0 0 0 2 222 234 
0 0 0 0 0 0 2 223 230 
8 0 0 0 2 0 1 224 
9 0 0 0 6 0 2 225 239 
6 0 0 0 7 0 2 227 226 
6 0 0 0 10 0 1 228 
10 0 0 0 10 0 1 228 
1 0 0 0 9 0 1 229 
1 0 0 0 5 0 2 232 231 
4 0 0 0 10 0 1 231 
10 0 0 0 6 0 1 233 
1 0 0 0 10 0 1 233 
0 0 0 0 0 0 1 246 
0 0 0 0 0 0 2 235 241 
7 0 0 0 3 0 2 238 236 
7 0 0 0 4 0 1 237 
6 0 0 0 9 0 1 239 
5 0 0 0 8 0 1 239 
7 0 0 0 9 0 1 240 
9 0 0 0 7 0 2 244 242 
5 0 0 0 10 0 2 244 242 
10 0 0 0 10 0 1 243 
1 0 0 0 5 0 1 245 
7 0 0 0 10 0 1 245 
0 0 0 0 0 0 1 246 
0 0 0 0 0 0 0 
